33D32945 STP File, STP Format Version 1.0

SECTION Comment
Name    "Series C" 
Creator "A. M. Costa" 
Format  "Z.H. Fu and J. K. Hao"
Remark  "Sparse graph with random weights"
#TotalEdgeCost 3521
#BudgetFraction 30
END 

SECTION Graph 
Nodes 500 
Edges 625 
Root 1
Budget 117
HopLimit 15
E 1 374 2 
E 1 468 3 
E 2 34 4 
E 2 365 3 
E 2 489 9 
E 3 221 1 
E 3 223 4 
E 3 341 5 
E 3 380 8 
E 3 403 5 
E 4 48 1 
E 4 112 9 
E 4 180 6 
E 5 217 5 
E 6 144 3 
E 6 202 6 
E 7 420 3 
E 8 26 8 
E 9 58 7 
E 9 486 7 
E 10 238 8 
E 10 263 3 
E 11 179 8 
E 11 336 2 
E 11 440 9 
E 11 463 8 
E 12 338 1 
E 13 224 7 
E 13 292 2 
E 14 82 7 
E 14 218 8 
E 14 412 7 
E 15 69 5 
E 16 242 6 
E 16 364 2 
E 16 418 7 
E 16 419 7 
E 17 177 8 
E 17 196 10 
E 17 437 6 
E 18 193 9 
E 19 78 1 
E 19 164 8 
E 19 229 9 
E 19 231 10 
E 19 363 5 
E 20 67 10 
E 20 90 1 
E 20 192 7 
E 20 226 4 
E 20 401 2 
E 20 485 8 
E 20 487 5 
E 21 153 8 
E 21 173 2 
E 21 278 7 
E 22 485 3 
E 22 498 5 
E 23 137 9 
E 23 228 10 
E 23 478 5 
E 24 182 8 
E 25 92 9 
E 26 372 4 
E 26 378 7 
E 27 221 1 
E 27 305 8 
E 28 324 1 
E 29 120 3 
E 29 131 8 
E 29 257 4 
E 30 133 6 
E 30 259 6 
E 30 346 5 
E 30 397 1 
E 30 398 4 
E 31 126 9 
E 31 313 5 
E 31 331 5 
E 31 388 10 
E 32 167 1 
E 32 179 6 
E 32 186 9 
E 32 209 3 
E 32 295 7 
E 32 330 9 
E 32 429 5 
E 32 452 5 
E 32 491 6 
E 33 166 2 
E 33 171 4 
E 33 195 9 
E 33 216 2 
E 33 315 4 
E 33 334 5 
E 34 111 4 
E 34 317 1 
E 35 94 5 
E 35 101 2 
E 35 329 9 
E 36 220 4 
E 37 276 6 
E 38 359 8 
E 38 407 3 
E 39 59 3 
E 39 401 4 
E 39 411 2 
E 39 468 10 
E 40 334 1 
E 41 147 3 
E 41 349 8 
E 42 224 9 
E 42 354 3 
E 43 104 2 
E 43 405 9 
E 44 132 3 
E 44 383 8 
E 45 84 8 
E 45 120 6 
E 45 137 10 
E 45 420 1 
E 46 166 4 
E 46 205 9 
E 47 409 8 
E 48 349 9 
E 49 390 8 
E 50 328 1 
E 51 102 8 
E 51 126 9 
E 51 209 4 
E 51 373 2 
E 52 244 8 
E 52 280 3 
E 53 436 8 
E 54 160 7 
E 54 423 1 
E 55 439 4 
E 55 451 4 
E 55 482 2 
E 56 204 9 
E 56 318 8 
E 56 333 5 
E 57 119 5 
E 57 120 8 
E 57 212 3 
E 58 121 6 
E 59 60 7 
E 59 222 8 
E 59 269 4 
E 59 280 5 
E 59 419 10 
E 61 99 5 
E 61 135 7 
E 61 254 7 
E 62 66 2 
E 62 240 3 
E 63 253 7 
E 64 413 10 
E 65 232 7 
E 67 304 8 
E 68 187 1 
E 68 198 7 
E 68 342 10 
E 69 384 7 
E 69 386 9 
E 70 112 8 
E 70 172 3 
E 70 436 3 
E 71 279 10 
E 71 399 5 
E 71 496 7 
E 72 179 10 
E 72 277 2 
E 72 347 3 
E 72 470 7 
E 73 104 6 
E 73 278 7 
E 73 464 4 
E 74 145 10 
E 75 315 1 
E 76 331 6 
E 77 370 3 
E 77 431 7 
E 77 449 2 
E 79 116 10 
E 79 126 7 
E 79 155 10 
E 79 170 6 
E 79 466 8 
E 80 255 2 
E 81 173 7 
E 81 205 8 
E 81 493 3 
E 82 141 8 
E 83 103 4 
E 83 143 9 
E 84 237 5 
E 84 457 6 
E 84 463 2 
E 85 136 3 
E 85 197 10 
E 85 482 2 
E 86 266 5 
E 86 385 8 
E 87 175 6 
E 87 192 2 
E 87 385 7 
E 87 485 6 
E 88 150 3 
E 88 460 1 
E 89 296 6 
E 89 417 9 
E 89 435 2 
E 90 278 2 
E 90 342 10 
E 90 356 4 
E 91 443 2 
E 92 358 4 
E 93 343 2 
E 93 476 6 
E 94 255 1 
E 95 275 6 
E 95 373 5 
E 96 343 10 
E 96 411 4 
E 97 254 2 
E 97 308 6 
E 97 421 2 
E 97 459 2 
E 98 159 4 
E 98 270 9 
E 99 292 1 
E 99 430 9 
E 99 455 9 
E 100 160 8 
E 101 293 4 
E 103 114 8 
E 105 177 1 
E 105 307 8 
E 105 316 10 
E 105 390 8 
E 105 432 7 
E 106 283 5 
E 106 350 10 
E 107 148 4 
E 108 499 5 
E 109 173 6 
E 110 276 1 
E 111 388 5 
E 112 213 5 
E 112 300 9 
E 113 278 9 
E 113 445 4 
E 114 338 3 
E 114 477 5 
E 114 481 3 
E 115 265 9 
E 115 273 6 
E 116 279 1 
E 116 351 2 
E 116 450 3 
E 116 489 2 
E 117 169 5 
E 118 357 10 
E 119 223 8 
E 119 232 4 
E 119 460 1 
E 120 179 5 
E 120 499 8 
E 121 306 2 
E 122 409 8 
E 122 443 10 
E 122 482 6 
E 123 176 8 
E 123 297 3 
E 123 361 8 
E 123 412 2 
E 124 146 10 
E 124 372 3 
E 125 140 5 
E 125 223 3 
E 125 386 4 
E 126 358 3 
E 127 128 7 
E 127 191 10 
E 127 230 4 
E 127 278 3 
E 128 145 1 
E 129 150 3 
E 129 246 9 
E 130 485 1 
E 131 138 3 
E 131 266 9 
E 131 373 7 
E 132 183 3 
E 132 204 4 
E 132 208 8 
E 133 484 7 
E 134 322 3 
E 134 400 7 
E 134 495 7 
E 135 184 7 
E 135 189 10 
E 136 425 3 
E 136 485 9 
E 137 322 4 
E 138 335 5 
E 139 155 5 
E 139 252 9 
E 139 380 5 
E 141 258 8 
E 142 241 9 
E 142 311 9 
E 142 376 2 
E 142 428 10 
E 143 269 6 
E 143 307 5 
E 143 355 7 
E 144 177 5 
E 144 309 8 
E 144 451 9 
E 146 299 10 
E 147 222 3 
E 147 323 2 
E 147 416 8 
E 148 156 10 
E 148 470 8 
E 149 162 10 
E 149 211 5 
E 150 153 5 
E 150 250 7 
E 151 378 9 
E 152 172 3 
E 152 354 5 
E 153 397 10 
E 154 416 10 
E 155 240 10 
E 155 277 10 
E 155 362 6 
E 156 415 2 
E 157 313 1 
E 157 348 10 
E 158 160 9 
E 158 174 10 
E 158 223 5 
E 159 416 1 
E 160 163 8 
E 161 223 3 
E 161 249 3 
E 162 357 9 
E 162 367 8 
E 163 168 8 
E 165 443 2 
E 166 417 9 
E 167 214 8 
E 168 249 9 
E 169 222 8 
E 169 437 3 
E 169 496 3 
E 170 250 7 
E 171 462 4 
E 171 478 2 
E 172 390 6 
E 173 250 10 
E 173 338 8 
E 173 485 5 
E 174 267 4 
E 174 314 5 
E 174 343 1 
E 175 249 5 
E 176 365 8 
E 176 425 5 
E 177 285 1 
E 177 320 1 
E 177 335 4 
E 177 370 3 
E 177 465 2 
E 178 269 1 
E 178 420 5 
E 179 223 5 
E 179 276 4 
E 179 304 3 
E 181 248 3 
E 182 429 8 
E 183 387 2 
E 183 395 10 
E 184 292 9 
E 184 363 3 
E 185 341 3 
E 186 351 2 
E 186 413 9 
E 186 480 1 
E 188 453 3 
E 189 303 10 
E 190 284 1 
E 190 374 4 
E 190 447 4 
E 193 440 2 
E 194 279 2 
E 194 334 8 
E 194 458 8 
E 194 461 10 
E 194 500 1 
E 196 283 1 
E 196 353 7 
E 197 481 4 
E 198 297 4 
E 199 304 10 
E 200 245 8 
E 200 269 10 
E 200 392 6 
E 201 258 8 
E 202 354 10 
E 203 318 9 
E 204 276 1 
E 205 219 8 
E 205 310 4 
E 205 337 4 
E 205 472 10 
E 206 236 4 
E 206 406 2 
E 207 338 8 
E 207 404 1 
E 207 411 4 
E 208 357 8 
E 208 408 7 
E 209 244 2 
E 210 470 8 
E 214 426 3 
E 215 437 5 
E 217 297 1 
E 218 270 7 
E 220 298 6 
E 220 467 3 
E 222 321 2 
E 223 372 1 
E 223 373 6 
E 223 423 4 
E 224 487 2 
E 225 277 5 
E 226 376 6 
E 227 398 7 
E 229 264 9 
E 229 393 8 
E 229 448 4 
E 230 420 2 
E 231 366 8 
E 231 369 10 
E 231 431 6 
E 231 449 9 
E 233 234 10 
E 234 338 4 
E 235 374 10 
E 235 397 7 
E 235 452 8 
E 236 397 8 
E 237 278 2 
E 238 326 10 
E 238 443 3 
E 239 416 3 
E 240 293 8 
E 241 411 1 
E 242 341 5 
E 242 355 7 
E 243 396 2 
E 245 288 9 
E 245 406 3 
E 246 414 3 
E 247 272 10 
E 247 438 5 
E 248 351 6 
E 249 375 9 
E 251 412 1 
E 252 328 9 
E 252 389 8 
E 252 456 2 
E 253 364 10 
E 253 444 5 
E 254 405 2 
E 256 424 3 
E 257 396 9 
E 258 261 9 
E 258 270 10 
E 259 384 2 
E 259 395 3 
E 260 375 10 
E 262 462 2 
E 263 341 5 
E 267 278 2 
E 267 323 10 
E 267 375 5 
E 268 304 9 
E 269 276 3 
E 269 292 2 
E 269 301 1 
E 269 329 3 
E 269 412 4 
E 270 347 4 
E 270 434 10 
E 271 329 9 
E 271 383 2 
E 271 386 9 
E 272 431 10 
E 272 432 1 
E 273 288 7 
E 273 332 9 
E 274 334 1 
E 275 391 6 
E 276 328 9 
E 276 424 10 
E 277 339 10 
E 277 377 9 
E 277 410 7 
E 277 441 2 
E 279 291 5 
E 281 340 10 
E 282 286 7 
E 282 289 1 
E 282 329 8 
E 283 473 1 
E 284 426 9 
E 287 370 6 
E 287 471 3 
E 290 496 7 
E 292 485 10 
E 294 334 9 
E 295 302 9 
E 297 376 1 
E 297 465 2 
E 302 381 1 
E 304 402 9 
E 304 444 8 
E 305 347 5 
E 305 365 8 
E 305 476 4 
E 306 386 9 
E 306 435 6 
E 309 393 9 
E 310 389 8 
E 312 380 4 
E 312 478 8 
E 313 446 7 
E 315 426 10 
E 317 328 6 
E 317 497 1 
E 318 465 9 
E 319 375 1 
E 319 454 4 
E 322 414 5 
E 322 441 9 
E 324 351 6 
E 324 475 10 
E 325 454 3 
E 327 335 6 
E 328 439 6 
E 329 344 10 
E 333 421 4 
E 334 363 7 
E 334 457 3 
E 334 485 1 
E 335 474 4 
E 337 481 2 
E 338 357 7 
E 338 394 7 
E 340 432 6 
E 345 462 8 
E 346 416 7 
E 346 422 8 
E 348 370 10 
E 352 498 7 
E 356 427 2 
E 357 480 6 
E 358 387 10 
E 359 390 4 
E 360 499 3 
E 361 393 5 
E 363 449 1 
E 363 453 9 
E 364 398 7 
E 365 379 8 
E 368 473 8 
E 369 396 1 
E 370 381 7 
E 370 414 8 
E 371 451 5 
E 372 494 4 
E 373 433 10 
E 374 453 7 
E 376 418 10 
E 379 500 5 
E 380 494 2 
E 382 444 1 
E 383 431 4 
E 386 392 4 
E 390 441 8 
E 390 479 1 
E 393 456 4 
E 395 439 5 
E 396 479 1 
E 398 495 2 
E 400 496 10 
E 407 495 7 
E 411 438 9 
E 411 486 5 
E 412 495 9 
E 414 454 2 
E 418 491 3 
E 422 473 5 
E 422 483 4 
E 422 485 7 
E 423 469 3 
E 439 464 3 
E 440 470 3 
E 442 445 2 
E 443 485 2 
E 444 467 5 
E 446 451 7 
E 454 497 9 
E 456 492 10 
E 457 486 4 
E 465 485 6 
E 470 493 8 
E 472 490 8 
E 479 485 1 
E 488 500 10 
END 

SECTION ProfitableVertices 
ProfitableVertices 5 
PV 1 3
PV 128 3
PV 164 5
PV 243 7
PV 499 9
END 

EOF 
